NAME          ClpDefau  FREE
ROWS
 N  OBJROW
 L  ZMUNI1_PCT
 L  ZMUNI2_PCT
 L  ZMUNI3_PCT
 L  ZMUNI4_PCT
 L  ZMUNI5_PCT
 L  ZMUNI6_PCT
 L  ZMUNI7_PCT
 L  ZMUNI8_PCT
 L  ZMUNI9_PCT
COLUMNS
    QMUNI1 OBJROW 1.          
    QMUNI1 ZMUNI1_PCT 29690.3611  
    QMUNI1 ZMUNI2_PCT 2332.1152   
    QMUNI1 ZMUNI3_PCT 4759.7885   
    QMUNI1 ZMUNI4_PCT 3615.9515   
    QMUNI1 ZMUNI5_PCT 743.103     
    QMUNI1 ZMUNI6_PCT 916.0995    
    QMUNI1 ZMUNI7_PCT 2842.7124   
    QMUNI1 ZMUNI8_PCT 2477.8366   
    QMUNI1 ZMUNI9_PCT 1788.7116   
    QMUNI2 OBJROW 1.          
    QMUNI2 ZMUNI1_PCT 1206.5888   
    QMUNI2 ZMUNI2_PCT 34237.8616  
    QMUNI2 ZMUNI3_PCT 2029.0374   
    QMUNI2 ZMUNI4_PCT 2296.4477   
    QMUNI2 ZMUNI5_PCT  -909.6145  
    QMUNI2 ZMUNI6_PCT  -797.081   
    QMUNI2 ZMUNI7_PCT  -45.0134   
    QMUNI2 ZMUNI8_PCT 211.1435    
    QMUNI2 ZMUNI9_PCT 78.3921     
    QMUNI3 OBJROW 1.          
    QMUNI3 ZMUNI1_PCT 3741.8366   
    QMUNI3 ZMUNI2_PCT 2239.9902   
    QMUNI3 ZMUNI3_PCT 30251.8844  
    QMUNI3 ZMUNI4_PCT 4800.2243   
    QMUNI3 ZMUNI5_PCT  -454.7119  
    QMUNI3 ZMUNI6_PCT  -293.1595  
    QMUNI3 ZMUNI7_PCT 957.8705    
    QMUNI3 ZMUNI8_PCT 785.0647    
    QMUNI3 ZMUNI9_PCT  -59.7      
    QMUNI4 OBJROW 1.          
    QMUNI4 ZMUNI1_PCT 2839.4699   
    QMUNI4 ZMUNI2_PCT 2670.4788   
    QMUNI4 ZMUNI3_PCT 5045.7      
    QMUNI4 ZMUNI4_PCT 109644.3176 
    QMUNI4 ZMUNI5_PCT  -582.5043  
    QMUNI4 ZMUNI6_PCT  -463.4857  
    QMUNI4 ZMUNI7_PCT 552.3681    
    QMUNI4 ZMUNI8_PCT 552.5589    
    QMUNI4 ZMUNI9_PCT 34.9045     
    QMUNI5 OBJROW 1.          
    QMUNI5 ZMUNI1_PCT  -102.6153  
    QMUNI5 ZMUNI2_PCT  -196.0754  
    QMUNI5 ZMUNI3_PCT  -141.9068  
    QMUNI5 ZMUNI4_PCT  -125.3128  
    QMUNI5 ZMUNI5_PCT 35745.0485  
    QMUNI5 ZMUNI6_PCT 2381.5155   
    QMUNI5 ZMUNI7_PCT  -270.4621  
    QMUNI5 ZMUNI8_PCT  -439.4531  
    QMUNI5 ZMUNI9_PCT  -550.6515  
    QMUNI6 OBJROW 1.          
    QMUNI6 ZMUNI1_PCT  -28.2287   
    QMUNI6 ZMUNI2_PCT  -299.8352  
    QMUNI6 ZMUNI3_PCT  -112.5336  
    QMUNI6 ZMUNI4_PCT  -104.5227  
    QMUNI6 ZMUNI5_PCT 2344.8944   
    QMUNI6 ZMUNI6_PCT 32481.575   
    QMUNI6 ZMUNI7_PCT  -412.3688  
    QMUNI6 ZMUNI8_PCT  -715.6372  
    QMUNI6 ZMUNI9_PCT  -1098.442  
    QMUNI7 OBJROW 1.          
    QMUNI7 ZMUNI1_PCT 1024.8185   
    QMUNI7 ZMUNI2_PCT 418.663     
    QMUNI7 ZMUNI3_PCT 855.6366    
    QMUNI7 ZMUNI4_PCT 639.3432    
    QMUNI7 ZMUNI5_PCT  -634.0027  
    QMUNI7 ZMUNI6_PCT  -406.2653  
    QMUNI7 ZMUNI7_PCT 30848.3124  
    QMUNI7 ZMUNI8_PCT 1443.2907   
    QMUNI7 ZMUNI9_PCT  -359.9167  
    QMUNI8 OBJROW 1.          
    QMUNI8 ZMUNI1_PCT 852.0127    
    QMUNI8 ZMUNI2_PCT 742.1494    
    QMUNI8 ZMUNI3_PCT 888.8244    
    QMUNI8 ZMUNI4_PCT 704.1931    
    QMUNI8 ZMUNI5_PCT  -359.9167  
    QMUNI8 ZMUNI6_PCT  -272.1787  
    QMUNI8 ZMUNI7_PCT 1809.3109   
    QMUNI8 ZMUNI8_PCT 28793.7164  
    QMUNI8 ZMUNI9_PCT 733.3756    
    QMUNI9 OBJROW 1.          
    QMUNI9 ZMUNI1_PCT 539.3982    
    QMUNI9 ZMUNI2_PCT 840.5685    
    QMUNI9 ZMUNI3_PCT 641.0598    
    QMUNI9 ZMUNI4_PCT 600.4333    
    QMUNI9 ZMUNI5_PCT 129.509     
    QMUNI9 ZMUNI6_PCT 102.0431    
    QMUNI9 ZMUNI7_PCT 557.3272    
    QMUNI9 ZMUNI8_PCT 1095.7718   
    QMUNI9 ZMUNI9_PCT 28351.7838  
RHS
    RHS ZMUNI1_PCT  -0.5411506 
    RHS ZMUNI2_PCT -0.0984978  
    RHS ZMUNI3_PCT  -0.20065673
    RHS ZMUNI4_PCT 2.7511667712
    RHS ZMUNI5_PCT 0.04066001  
    RHS ZMUNI6_PCT  -0.48426398
    RHS ZMUNI7_PCT 0.5291881861
    RHS ZMUNI8_PCT 0.3440238773
    RHS ZMUNI9_PCT 0.7062362426
BOUNDS
 LO BOUND QMUNI1 -0.000781268
 UP BOUND QMUNI1      1.1e+10
 LO BOUND QMUNI2 -0.000536332
 UP BOUND QMUNI2      1.1e+10
 LO BOUND QMUNI3 -0.00060612 
 UP BOUND QMUNI3      1.1e+10
 LO BOUND QMUNI4 -0.000200896
 UP BOUND QMUNI4      1.1e+10
 LO BOUND QMUNI5 -0.000384194
 UP BOUND QMUNI5      1.1e+10
 LO BOUND QMUNI6 -0.000557653
 UP BOUND QMUNI6      1.1e+10
 LO BOUND QMUNI7 -0.000209458
 UP BOUND QMUNI7      1.1e+10
 LO BOUND QMUNI8 -0.000321938
 UP BOUND QMUNI8      1.1e+10
 LO BOUND QMUNI9 -0.000317051
 UP BOUND QMUNI9      1.1e+10
ENDATA
